\* FabricaDeCalcados *\
Maximize
Total_de_custos: 22 x1 + 48 x2
Subject To
HorasDeTrabalho: 3 x1 + 4 x2 <= 120
MaoDeObra: x1 + 2 x2 <= 15
Material: 0.3 x1 + 0.5 x2 <= 15
Bounds
x1 <= 100
x2 <= 100
End
